\ This file has been generated by DOcplex
\ ENCODING=ISO-8859-1
\Problem name: random_problem.lp

Minimize
 obj: - 5 x0 - 5 x1 - 6 x2 - 6 x3 - 9 x4 - 3 x5 + 6 x6 + x7 + x9 - 5 x10 + 7 x11
      + 7 x12 - 10 x13 - x14 + 5 x15 - 2 x16 + 9 x17 - 5 x19 + 7 x21 + 8 x22
      + 3 x23 + [ 12 x0*x7 + 16 x0*x9 - 10 x0*x10 - 16 x0*x11 + 2 x0*x13
      - 8 x0*x15 + 6 x0*x16 + 10 x0*x17 - 12 x0*x18 + 8 x0*x22 - 6 x1*x4
      - 6 x1*x6 + 4 x1*x8 + 10 x1*x10 - 12 x1*x17 - 4 x1*x18 - 4 x1*x19
      - 20 x1*x20 - 14 x1*x22 + 14 x1*x23 + 14 x2*x3 + 10 x2*x4 + 12 x2*x9
      + 16 x2*x13 - 20 x2*x14 + 12 x2*x15 - 16 x2*x16 + 12 x2*x18 + 4 x2*x20
      + 6 x2*x22 + 18 x3*x6 + 8 x3*x7 + 2 x3*x8 + 12 x3*x12 - 10 x3*x13
      + 4 x3*x14 - 16 x3*x15 - 2 x3*x20 + 20 x3*x21 + 2 x4*x9 - 12 x4*x10
      - 10 x4*x14 + 2 x4*x16 - 6 x4*x17 + 4 x4*x18 + 16 x4*x20 - 6 x4*x21
      + 2 x5*x6 - 18 x5*x11 - 14 x5*x12 - 20 x5*x13 + 10 x5*x15 + 20 x5*x16
      + 2 x5*x18 + 18 x5*x19 + 12 x5*x21 - 16 x5*x22 - 18 x6*x7 + 6 x6*x9
      - 18 x6*x10 + 16 x6*x11 + 14 x6*x12 - 10 x6*x14 + 2 x6*x20 - 14 x7*x8
      + 8 x7*x10 - 10 x7*x12 + 4 x7*x17 - 10 x7*x21 + 16 x7*x22 + 20 x7*x23
      + 12 x8*x10 - 12 x8*x11 - 4 x8*x12 + 18 x8*x13 + 8 x8*x20 - 16 x8*x21
      + 16 x8*x23 + 20 x9*x12 - 6 x9*x15 - 16 x9*x16 + 12 x9*x20 + 12 x9*x21
      - 20 x9*x23 + 12 x10*x11 + 18 x10*x13 + 12 x10*x19 + 10 x10*x22
      - 8 x11*x13 + 16 x11*x14 - 20 x11*x15 + 4 x11*x19 + 16 x11*x23
      - 12 x12*x14 - 4 x12*x18 - 2 x12*x21 + 2 x12*x22 + 4 x13*x17 + 18 x13*x18
      - 2 x13*x23 - 10 x14*x15 + 16 x14*x17 + 10 x14*x19 + 6 x14*x23
      + 16 x15*x16 + 18 x15*x18 + 18 x15*x19 - 20 x16*x17 - 12 x16*x18
      + 18 x16*x20 + 4 x16*x22 - 10 x17*x19 - 6 x17*x20 - 16 x17*x22
      - 16 x18*x20 - 4 x19*x21 + 10 x19*x22 - 20 x19*x23 + 2 x21*x23 ]/2
Subject To
 c0: x0 - x3 + x4 - x5 + 2 x6 - 2 x12 + 2 x13 - x17 + x18 + 2 x19 = -1
 c1: x0 - 2 x1 - x8 + x9 - x10 + 2 x17 - 2 x18 + x21 + 2 x22 + x23 = -1
 c2: - x0 + 2 x3 + 2 x4 + x5 + 2 x9 + x10 + 2 x15 - 2 x16 - 2 x18 + x19 = -2
 c3: x5 + x6 - 2 x8 + x13 - 2 x14 + 2 x15 - x16 - 2 x19 + 2 x21 - x23 = -2

Bounds
 0 <= x0 <= 1
 0 <= x1 <= 1
 0 <= x2 <= 1
 0 <= x3 <= 1
 0 <= x4 <= 1
 0 <= x5 <= 1
 0 <= x6 <= 1
 0 <= x7 <= 1
 0 <= x8 <= 1
 0 <= x9 <= 1
 0 <= x10 <= 1
 0 <= x11 <= 1
 0 <= x12 <= 1
 0 <= x13 <= 1
 0 <= x14 <= 1
 0 <= x15 <= 1
 0 <= x16 <= 1
 0 <= x17 <= 1
 0 <= x18 <= 1
 0 <= x19 <= 1
 0 <= x20 <= 1
 0 <= x21 <= 1
 0 <= x22 <= 1
 0 <= x23 <= 1

Binaries
 x0 x1 x2 x3 x4 x5 x6 x7 x8 x9 x10 x11 x12 x13 x14 x15 x16 x17 x18 x19 x20 x21
 x22 x23
End
